NAME : octagon
COMMENT : this is an octagon with a min. fitness of 9.6568
TYPE : TSP
DIMENSION: 8
EDGE_WEIGHT_TYPE : EUC_2D
NODE_COORD_SECTION
  A 1 0
  B 2 0
  C 3 1
  D 3 2
  E 2 3
  F 1 3
  G 0 2
  H 0 1
EOF